p tw 25 75
0 1
0 15
0 6
0 21
1 4
1 12
1 18
1 8
1 24
1 19
1 21
1 13
2 3
2 15
2 21
2 9
2 18
2 24
2 13
3 16
3 18
3 11
3 19
3 4
3 9
3 6
3 24
4 20
4 9
4 17
4 23
4 18
4 19
4 8
5 6
5 11
5 20
5 9
5 10
5 24
5 8
5 21
6 7
6 10
6 19
6 12
7 8
7 9
7 17
8 18
8 15
9 12
9 10
9 21
10 11
10 23
11 17
12 15
12 17
12 19
12 20
13 14
13 23
14 22
15 23
16 17
16 20
17 20
17 19
18 19
18 22
18 20
19 22
21 24
23 24
